\ LP format - for model browsing. Use MPS format to capture full model detail.
Minimize
  0 a__9 + 0 a__10
Subject To
 R0: b_0 = 1
 R1: - s__0 - 10000 b_0 >= -10000
 R2: - s__0 - 10000 b_0 <= -0.0001
 R3: s__0 - 10000 b_0 >= -10000
 R4: s__0 - 10000 b_0 <= -0.0001
 R5: b_1 = 1
 R6: - v__0 - 10000 b_1 >= -10000
 R7: - v__0 - 10000 b_1 <= -0.0001
 R8: v__0 - 10000 b_1 >= -10000
 R9: v__0 - 10000 b_1 <= -0.0001
 R10: b_g = 1
 R11: s__0 - 10000 b_g_3[0,0] >= -9966
 R12: s__0 - 10000 b_g_3[0,0] <= 33.9999
 R13: s__0 + v__0 - 10000 b_g_3[0,1] >= -9966
 R14: s__0 + v__0 - 10000 b_g_3[0,1] <= 33.9999
 R15: s__0 + 2 v__0 + a__0 - 10000 b_g_3[0,2] >= -9965.359224217227
 R16: s__0 + 2 v__0 + a__0 - 10000 b_g_3[0,2] <= 34.6406757827723
 R17: s__0 + 3 v__0 + 2 a__0 + a__1 - 10000 b_g_3[0,3]
   >= -9964.567181791386
 R18: s__0 + 3 v__0 + 2 a__0 + a__1 - 10000 b_g_3[0,3] <= 35.4327182086145
 R19: s__0 + 4 v__0 + 3 a__0 + 2 a__1 + a__2 - 10000 b_g_3[0,4]
   >= -9963.602436559124
 R20: s__0 + 4 v__0 + 3 a__0 + 2 a__1 + a__2 - 10000 b_g_3[0,4]
   <= 36.39746344087582
 R21: s__0 + 5 v__0 + 4 a__0 + 3 a__1 + 2 a__2 + a__3 - 10000 b_g_3[0,5]
   >= -9962.490326494726
 R22: s__0 + 5 v__0 + 4 a__0 + 3 a__1 + 2 a__2 + a__3 - 10000 b_g_3[0,5]
   <= 37.50957350527419
 R23: s__0 + 6 v__0 + 5 a__0 + 4 a__1 + 3 a__2 + 2 a__3 + a__4
   - 10000 b_g_3[0,6] >= -9961.247879609236
 R24: s__0 + 6 v__0 + 5 a__0 + 4 a__1 + 3 a__2 + 2 a__3 + a__4
   - 10000 b_g_3[0,6] <= 38.75202039076347
 R25: s__0 + 7 v__0 + 6 a__0 + 5 a__1 + 4 a__2 + 3 a__3 + 2 a__4 + a__5
   - 10000 b_g_3[0,7] >= -9959.887388614949
 R26: s__0 + 7 v__0 + 6 a__0 + 5 a__1 + 4 a__2 + 3 a__3 + 2 a__4 + a__5
   - 10000 b_g_3[0,7] <= 40.11251138505126
 R27: s__0 + 8 v__0 + 7 a__0 + 6 a__1 + 5 a__2 + 4 a__3 + 3 a__4 + 2 a__5
   + a__6 - 10000 b_g_3[0,8] >= -9958.418238692082
 R28: s__0 + 8 v__0 + 7 a__0 + 6 a__1 + 5 a__2 + 4 a__3 + 3 a__4 + 2 a__5
   + a__6 - 10000 b_g_3[0,8] <= 41.58166130791807
 R29: s__0 + 9 v__0 + 8 a__0 + 7 a__1 + 6 a__2 + 5 a__3 + 4 a__4 + 3 a__5
   + 2 a__6 + a__7 - 10000 b_g_3[0,9] >= -9956.847891217176
 R30: s__0 + 9 v__0 + 8 a__0 + 7 a__1 + 6 a__2 + 5 a__3 + 4 a__4 + 3 a__5
   + 2 a__6 + a__7 - 10000 b_g_3[0,9] <= 43.1520087828238
 R31: s__0 + 10 v__0 + 9 a__0 + 8 a__1 + 7 a__2 + 6 a__3 + 5 a__4 + 4 a__5
   + 3 a__6 + 2 a__7 + a__8 - 10000 b_g_3[0,10] >= -9955.18245974912
 R32: s__0 + 10 v__0 + 9 a__0 + 8 a__1 + 7 a__2 + 6 a__3 + 5 a__4 + 4 a__5
   + 3 a__6 + 2 a__7 + a__8 - 10000 b_g_3[0,10] <= 44.81744025088071
Bounds
 -100 <= s__0 <= 2000
 -5 <= v__0 <= 10
 -1 <= a__0 <= 1
 -1 <= a__1 <= 1
 -1 <= a__2 <= 1
 -1 <= a__3 <= 1
 -1 <= a__4 <= 1
 -1 <= a__5 <= 1
 -1 <= a__6 <= 1
 -1 <= a__7 <= 1
 -1 <= a__8 <= 1
 -1 <= a__9 <= 1
 -1 <= a__10 <= 1
Binaries
 b_0 b_1 b_g b_g_3[0,0] b_g_3[0,1] b_g_3[0,2] b_g_3[0,3] b_g_3[0,4]
 b_g_3[0,5] b_g_3[0,6] b_g_3[0,7] b_g_3[0,8] b_g_3[0,9] b_g_3[0,10]
General Constraints
 GC0: b_g = OR ( b_g_3[0,0] , b_g_3[0,1] , b_g_3[0,2] , b_g_3[0,3] ,
   b_g_3[0,4] , b_g_3[0,5] , b_g_3[0,6] , b_g_3[0,7] , b_g_3[0,8] ,
   b_g_3[0,9] , b_g_3[0,10] )
End
